(set-logic ALL)
(set-option :produce-models true)
(declare-sort BoundSet 0)
(declare-sort UnboundSet 0)
(declare-fun IsPitching (BoundSet BoundSet) Bool)
(declare-fun IsInGameOfBaseball (BoundSet BoundSet) Bool)
(declare-fun Throws (BoundSet BoundSet) Bool)
(assert (not (=> (and (exists ((a BoundSet)) (exists ((c BoundSet)) (exists ((b BoundSet)) (and (IsPitching a b) (IsInGameOfBaseball a c))))) (and (forall ((e BoundSet)) (forall ((d BoundSet)) (=> (IsPitching d e) (Throws d e)))) (forall ((f BoundSet)) (forall ((g BoundSet)) (=> (Throws f g) (IsPitching f g)))))) (exists ((a BoundSet)) (exists ((b BoundSet)) (Throws a b))))))
(check-sat)
(get-model)